p cnf 14 64
-2 -8 -10 0
-1 4 -6 0
2 -6 -12 0
7 10 13 0
-5 6 -8 0
6 10 -12 0
1 -4 -5 0
-8 -9 12 0
-4 -12 -13 0
6 -9 -10 0
6 -8 -11 0
8 9 13 0
-5 10 13 0
3 5 -9 0
-2 11 13 0
5 -10 -11 0
2 -8 14 0
-4 -6 -14 0
4 -9 10 0
8 -10 11 0
-3 6 9 0
-3 -4 5 0
-3 -10 13 0
8 10 13 0
1 -6 -12 0
-10 13 -14 0
-1 6 9 0
-4 -6 -11 0
-2 6 -7 0
3 13 -14 0
-10 13 14 0
4 10 -11 0
5 -6 -8 0
4 -5 -10 0
10 -11 14 0
-2 -9 12 0
5 11 -14 0
4 -6 13 0
-6 -13 -14 0
-5 -7 -12 0
3 6 -10 0
-5 8 14 0
1 -9 -13 0
2 5 14 0
2 13 14 0
-6 7 -9 0
1 -3 -13 0
-4 -7 8 0
1 2 -10 0
1 -6 -8 0
-4 9 10 0
1 -13 -14 0
-4 10 -12 0
-2 -5 -13 0
-8 11 -12 0
-4 8 13 0
5 6 -14 0
-7 -8 -11 0
5 -10 13 0
-11 -12 14 0
-3 -6 -13 0
-2 -5 12 0
-6 -9 13 0
6 -11 14 0
